NAME : tsp30_1.191.tour
COMMENT : Length = 191
COMMENT : Found by LKH [Keld Helsgaun]
TYPE : TOUR
DIMENSION : 30
TOUR_SECTION
1
6
12
11
19
3
27
17
28
8
29
30
18
7
10
23
26
24
25
9
15
2
4
16
13
22
5
14
20
21
-1
EOF
